c SAT Generator for power-law distributed variable frequencies
c -g u -v 20 -c 91 -k 3 -p 2.750000 -b 3.200000 -f /home/schmidt/Devel/ni-kop-sat/data/ensemble/ruf20-91/ruf20-91-676 -u 1 -U 1 -s 3750950531
p cnf 20 91
-3 8 -10 0
-10 11 20 0
-13 16 -18 0
5 -10 13 0
3 -12 -16 0
4 8 -15 0
-1 5 -18 0
2 5 -7 0
10 13 -20 0
-10 -13 16 0
1 15 16 0
11 -14 16 0
-5 17 18 0
-10 15 -18 0
1 14 20 0
-1 9 13 0
2 12 -17 0
-11 -18 20 0
3 7 12 0
13 -16 18 0
-4 -5 -7 0
4 7 11 0
-7 -12 -13 0
6 -11 -18 0
11 13 15 0
2 12 20 0
-2 6 -10 0
-4 -8 10 0
-7 9 -20 0
2 -7 9 0
-1 11 -12 0
-5 8 -14 0
-6 -12 13 0
-1 -9 -12 0
-2 9 -14 0
-11 -15 18 0
9 12 -20 0
8 -18 -19 0
-3 -7 10 0
-1 17 20 0
-4 5 18 0
2 9 17 0
12 17 -18 0
-3 -5 -19 0
11 15 17 0
1 15 20 0
15 -17 19 0
-2 -17 18 0
5 -6 7 0
6 -11 18 0
-2 -11 13 0
-7 12 -14 0
3 -14 18 0
8 -12 -20 0
10 13 -17 0
3 4 -13 0
3 6 -10 0
15 16 -19 0
-2 11 15 0
2 10 -15 0
-7 13 -14 0
-12 -15 19 0
-6 -8 20 0
8 13 14 0
3 -8 20 0
-2 8 -16 0
-10 -18 -19 0
7 16 -19 0
5 7 14 0
-6 -12 -20 0
-11 12 -20 0
-4 15 19 0
-1 2 17 0
9 10 -13 0
8 11 15 0
1 5 -16 0
-2 4 -16 0
3 16 18 0
-8 -12 -18 0
-5 6 -20 0
-5 16 -19 0
-4 9 -11 0
1 10 11 0
-6 -14 17 0
6 12 16 0
7 9 -18 0
-10 14 -20 0
-7 13 14 0
3 11 12 0
3 4 6 0
-1 12 20 0
